peakDumbCharging = 33300; 
Machine = anon_enum(16); 
machineSpeed = [3700,3700,3700,3700,3700,3700,3700,3700,3700,3700,3700,3700,3700,3700,3700,3700]; 
machineLoad = [3700,3700,3700,3700,3700,3700,3700,3700,3700,3700,3700,3700,3700,3700,3700,3700]; 
Car = anon_enum(37); 
demandCar = [3360,6560,9120,25000,4760,3440,6760,12000,8680,8680,13200,10400,4960,15680,4080,5760,13560,4560,4680,7120,16960,14560,8000,1120,3600,32720,8680,9160,25320,3440,3240,17200,4560,14080,3360,5560,6760]; 
arrivalCar = [75,72,71,66,65,62,62,58,58,58,57,56,56,55,55,55,55,55,54,53,51,49,48,47,44,43,43,43,42,42,42,40,40,38,37,36,25]; 
departureCar = [78,75,75,74,67,64,65,63,64,62,65,61,59,62,58,58,62,57,57,59,63,56,51,48,46,55,51,49,51,44,44,52,44,43,40,40,31]; 
